
Gurobi 8.0.0 (win64, Python) logging started 10/26/18 10:53:54

Academic license - for non-commercial use only

Gurobi 8.0.0 (win64, Python) logging started 10/26/18 11:21:45

Academic license - for non-commercial use only

Gurobi 8.0.0 (win64, Python) logging started 07/15/19 21:48:53


Gurobi 8.0.0 (win64, Python) logging started 07/15/19 21:57:09


Gurobi 8.0.0 (win64, Python) logging started 07/16/19 12:47:01

Academic license - for non-commercial use only
Freed default Gurobi environment

Gurobi 8.0.0 (win64, Python) logging started 07/29/19 21:58:49

Academic license - for non-commercial use only
Freed default Gurobi environment

Gurobi 8.0.0 (win64, Python) logging started 09/27/19 14:40:11

Academic license - for non-commercial use only

Gurobi 8.0.0 (win64, Python) logging started 09/27/19 14:42:32

Academic license - for non-commercial use only

Gurobi 8.0.0 (win64, Python) logging started 09/27/19 14:46:25

Academic license - for non-commercial use only
Freed default Gurobi environment

Gurobi 8.0.0 (win64, Python) logging started 09/27/19 14:49:37

Academic license - for non-commercial use only
Freed default Gurobi environment

Gurobi 8.0.0 (win64, Python) logging started 09/27/19 14:51:49

Academic license - for non-commercial use only
Freed default Gurobi environment

Gurobi 8.0.0 (win64, Python) logging started 09/27/19 14:53:52

Academic license - for non-commercial use only
Freed default Gurobi environment

Gurobi 8.0.0 (win64, Python) logging started 09/27/19 14:54:53

Academic license - for non-commercial use only
Freed default Gurobi environment

Gurobi 8.0.0 (win64, Python) logging started 09/27/19 14:55:56

Academic license - for non-commercial use only
Freed default Gurobi environment

Gurobi 8.0.0 (win64, Python) logging started 09/27/19 14:58:43

Academic license - for non-commercial use only

Gurobi 8.0.0 (win64, Python) logging started 09/27/19 15:15:38

Academic license - for non-commercial use only
Freed default Gurobi environment

Gurobi 8.0.0 (win64, Python) logging started 09/27/19 18:25:18

Academic license - for non-commercial use only
Freed default Gurobi environment
Freed default Gurobi environment

Gurobi 8.0.0 (win64, Python) logging started 09/27/19 21:13:50

Academic license - for non-commercial use only
Freed default Gurobi environment

Gurobi 8.0.0 (win64, Python) logging started 09/28/19 00:22:23

Academic license - for non-commercial use only
Freed default Gurobi environment

Gurobi 8.0.0 (win64, Python) logging started 09/28/19 09:35:36

Academic license - for non-commercial use only
Freed default Gurobi environment

Gurobi 8.0.0 (win64, Python) logging started 09/28/19 09:48:52

Academic license - for non-commercial use only
Freed default Gurobi environment

Gurobi 8.0.0 (win64, Python) logging started 09/30/19 10:21:18

Academic license - for non-commercial use only
Freed default Gurobi environment

Gurobi 8.0.0 (win64, Python) logging started 09/30/19 10:51:54

Academic license - for non-commercial use only
Freed default Gurobi environment

Gurobi 8.0.0 (win64, Python) logging started 09/30/19 15:14:29

Academic license - for non-commercial use only

Gurobi 8.0.0 (win64, Python) logging started 09/30/19 17:31:46

Academic license - for non-commercial use only
Freed default Gurobi environment
Freed default Gurobi environment

Gurobi 8.0.0 (win64, Python) logging started 09/30/19 21:11:23

Academic license - for non-commercial use only
Freed default Gurobi environment

Gurobi 8.0.0 (win64, Python) logging started 09/30/19 21:57:59

Academic license - for non-commercial use only
Freed default Gurobi environment

Gurobi 8.0.0 (win64, Python) logging started 09/30/19 22:04:07

Academic license - for non-commercial use only
Freed default Gurobi environment

Gurobi 8.0.0 (win64, Python) logging started 09/30/19 22:10:10

Academic license - for non-commercial use only
Freed default Gurobi environment

Gurobi 8.0.0 (win64, Python) logging started 09/30/19 22:16:10

Academic license - for non-commercial use only
Freed default Gurobi environment

Gurobi 8.0.0 (win64, Python) logging started 10/07/19 18:20:39

Academic license - for non-commercial use only
Freed default Gurobi environment

Gurobi 8.0.0 (win64, Python) logging started 10/07/19 18:47:18

Academic license - for non-commercial use only
Freed default Gurobi environment

Gurobi 8.0.0 (win64, Python) logging started 10/07/19 18:51:42

Academic license - for non-commercial use only
Freed default Gurobi environment

Gurobi 8.0.0 (win64, Python) logging started 10/07/19 18:57:24

Academic license - for non-commercial use only
Freed default Gurobi environment

Gurobi 8.0.0 (win64, Python) logging started 10/07/19 19:08:09

Academic license - for non-commercial use only
Freed default Gurobi environment

Gurobi 8.0.0 (win64, Python) logging started 10/07/19 20:11:41

Academic license - for non-commercial use only
Freed default Gurobi environment

Gurobi 8.0.0 (win64, Python) logging started 10/07/19 22:22:42

Academic license - for non-commercial use only
Freed default Gurobi environment

Gurobi 8.0.0 (win64, Python) logging started 10/08/19 09:04:22

Academic license - for non-commercial use only
Freed default Gurobi environment

Gurobi 8.0.0 (win64, Python) logging started 10/08/19 16:23:21

Academic license - for non-commercial use only
Freed default Gurobi environment

Gurobi 8.0.0 (win64, Python) logging started 10/08/19 16:54:41

Academic license - for non-commercial use only

Gurobi 8.0.0 (win64, Python) logging started 10/08/19 17:09:18

Academic license - for non-commercial use only
Freed default Gurobi environment
Freed default Gurobi environment

Gurobi 8.0.0 (win64, Python) logging started 10/08/19 17:25:31

Academic license - for non-commercial use only
Freed default Gurobi environment

Gurobi 8.0.0 (win64, Python) logging started 10/08/19 17:33:30

Academic license - for non-commercial use only

Gurobi 8.0.0 (win64, Python) logging started 10/08/19 17:39:55

Academic license - for non-commercial use only

Gurobi 8.0.0 (win64, Python) logging started 10/08/19 17:46:43

Academic license - for non-commercial use only
Freed default Gurobi environment
Freed default Gurobi environment

Gurobi 8.0.0 (win64, Python) logging started 10/08/19 17:52:42

Academic license - for non-commercial use only
Freed default Gurobi environment

Gurobi 8.0.0 (win64, Python) logging started 10/08/19 17:58:16

Academic license - for non-commercial use only

Gurobi 8.0.0 (win64, Python) logging started 10/08/19 18:07:10

Academic license - for non-commercial use only
Freed default Gurobi environment
Freed default Gurobi environment

Gurobi 8.0.0 (win64, Python) logging started 10/09/19 11:22:31

Academic license - for non-commercial use only
Freed default Gurobi environment

Gurobi 8.0.0 (win64, Python) logging started 10/09/19 15:09:28

Academic license - for non-commercial use only
Freed default Gurobi environment

Gurobi 8.0.0 (win64, Python) logging started 10/09/19 15:48:44

Academic license - for non-commercial use only
Freed default Gurobi environment

Gurobi 8.0.0 (win64, Python) logging started 10/09/19 16:09:14

Academic license - for non-commercial use only
Freed default Gurobi environment

Gurobi 8.0.0 (win64, Python) logging started 10/09/19 16:32:05

Academic license - for non-commercial use only
Freed default Gurobi environment

Gurobi 8.0.0 (win64, Python) logging started 10/09/19 16:55:24

Academic license - for non-commercial use only

Gurobi 8.0.0 (win64, Python) logging started 10/09/19 17:54:04

Academic license - for non-commercial use only
Freed default Gurobi environment
Freed default Gurobi environment

Gurobi 8.0.0 (win64, Python) logging started 10/09/19 18:02:03

Academic license - for non-commercial use only
Freed default Gurobi environment

Gurobi 8.0.0 (win64, Python) logging started 10/09/19 18:10:13

Academic license - for non-commercial use only
Freed default Gurobi environment

Gurobi 8.0.0 (win64, Python) logging started 10/13/19 16:20:24

Academic license - for non-commercial use only

Gurobi 8.0.0 (win64, Python) logging started 10/13/19 17:16:45

Academic license - for non-commercial use only
Freed default Gurobi environment

Gurobi 8.0.0 (win64, Python) logging started 10/14/19 10:03:33

Academic license - for non-commercial use only
Freed default Gurobi environment

Gurobi 8.0.0 (win64, Python) logging started 10/14/19 10:20:14

Academic license - for non-commercial use only
Freed default Gurobi environment

Gurobi 8.0.0 (win64, Python) logging started 10/14/19 14:59:40

Academic license - for non-commercial use only

Gurobi 8.0.0 (win64, Python) logging started 10/14/19 15:01:41

Academic license - for non-commercial use only
Freed default Gurobi environment

Gurobi 8.0.0 (win64, Python) logging started 10/14/19 15:12:24

Academic license - for non-commercial use only
Freed default Gurobi environment

Gurobi 8.0.0 (win64, Python) logging started 10/14/19 17:24:40

Academic license - for non-commercial use only
Freed default Gurobi environment

Gurobi 8.0.0 (win64, Python) logging started 10/14/19 20:15:10

Academic license - for non-commercial use only
Freed default Gurobi environment

Gurobi 8.0.0 (win64, Python) logging started 10/14/19 21:21:18

Academic license - for non-commercial use only
Freed default Gurobi environment
